14
1 0 32
3 0 45
4 0 35
4 2 9
5 0 18
5 2 17
5 4 45
6 2 23
6 4 3
7 0 11
7 1 42
7 4 44
7 6 46
8 0 8
8 4 28
9 3 7
9 4 28
9 5 27
9 6 1
10 0 22
10 1 39
10 2 24
10 3 6
10 4 11
10 7 12
10 8 46
11 0 14
11 1 36
11 3 35
11 4 9
11 5 14
11 6 37
11 9 43
11 10 11
12 0 18
12 1 2
12 4 37
12 5 21
12 6 28
12 8 13
12 9 11
12 10 6
13 0 34
13 1 23
13 3 35
13 6 12
13 7 17
13 8 13
13 11 18
